GLPSOL--GLPK LP/MIP Solver 5.0
Parameter(s) specified in the command line:
 --lp ../modeles/15_289.lp --log 15_289.log
Reading problem data from '../modeles/15_289.lp'...
4396 rows, 8700 columns, 30420 non-zeros
4335 integer variables, all of which are binary
13117 lines were read
GLPK Integer Optimizer 5.0
4396 rows, 8700 columns, 30420 non-zeros
4335 integer variables, all of which are binary
Preprocessing...
4290 constraint coefficient(s) were reduced
4396 rows, 8685 columns, 30405 non-zeros
4335 integer variables, all of which are binary
Scaling...
 A: min|aij| =  4.789e-05  max|aij| =  4.000e+00  ratio =  8.352e+04
GM: min|aij| =  5.882e-02  max|aij| =  1.700e+01  ratio =  2.890e+02
EQ: min|aij| =  3.460e-03  max|aij| =  1.000e+00  ratio =  2.890e+02
2N: min|aij| =  3.065e-03  max|aij| =  1.774e+00  ratio =  5.787e+02
Constructing initial basis...
Size of triangular part is 4396
Solving LP relaxation...
GLPK Simplex Optimizer 5.0
4396 rows, 8685 columns, 30405 non-zeros
      0: obj =   3.000000000e+01 inf =   7.450e+01 (31)
Perturbing LP to avoid stalling [199]...
    254: obj =   4.996467912e-01 inf =   0.000e+00 (0)
Removing LP perturbation [873]...
*   873: obj =  -3.872268257e+00 inf =   1.412e-13 (0) 1
OPTIMAL LP SOLUTION FOUND
Integer optimization begins...
Long-step dual simplex will be used
+   873: mip =     not found yet >=              -inf        (1; 0)
+   878: >>>>>  -3.872268257e+00 >=  -3.872268257e+00 < 0.1% (4; 0)
+   878: mip =  -3.872268257e+00 >=     tree is empty   0.0% (0; 7)
INTEGER OPTIMAL SOLUTION FOUND
Time used:   0.2 secs
Memory used: 12.6 Mb (13260991 bytes)
